c Maximum weighted clique instances generated from exactcolors.
c cutoff: 3329432.
c A clique of value > scalef (3329432) defines an improving stable sets for coloring.
p edge 31 0
n 1 3329432
n 2 3329432
n 3 3329432
n 4 3329432
n 5 3329432
n 6 3329432
n 7 3329432
n 8 3329432
n 9 3329432
n 10 3329432
n 11 3329432
n 12 3329432
n 13 3329432
n 14 3329432
n 15 3329432
n 16 3329432
n 17 3329432
n 18 3329432
n 19 3329432
n 20 3329432
n 21 3329432
n 22 3329432
n 23 3329432
n 24 3329432
n 25 3329432
n 26 3329432
n 27 3329432
n 28 3329432
n 29 3329432
n 30 3329432
n 31 3329432
